; benchmark generated from python API
(set-info :status unknown)
(declare-fun x_epoch () Int)
(declare-fun y_epoch () Int)
(declare-fun x_plus_epoch () Int)
(declare-fun x_plus_month () Int)
(declare-fun x_plus_year () Int)
(declare-fun x_plus_day () Int)
(assert
 (>= x_epoch (- 36525)))
(assert
 (<= x_epoch 36523))
(assert
 (>= y_epoch (- 36525)))
(assert
 (<= y_epoch 36523))
(assert
 (= x_epoch 7304))
(assert
 (>= x_plus_epoch (- 36525)))
(assert
 (<= x_plus_epoch 36523))
(assert
 (let (($x1774 (= x_plus_month 11)))
 (let (($x1182 (= x_plus_month 9)))
 (let (($x3268 (= x_plus_month 6)))
 (let (($x3214 (= x_plus_month 4)))
 (let ((?x3305 (ite (or $x3214 $x3268 $x1182 $x1774) 30 31)))
 (let (($x1283 (= (mod x_plus_year 400) 0)))
 (let (($x1462 (= (mod x_plus_year 4) 0)))
 (let (($x2673 (or (and $x1462 (and (distinct (mod x_plus_year 100) 0) true)) $x1283)))
 (let (($x4184 (= x_plus_month 2)))
 (let (($x2372 (>= x_plus_day 1)))
 (let (($x974 (<= x_plus_month 12)))
 (let (($x888 (>= x_plus_month 1)))
 (let (($x3955 (<= x_plus_year 2100)))
 (let (($x1768 (>= x_plus_year 1900)))
 (and $x1768 $x3955 $x888 $x974 $x2372 (<= x_plus_day (ite $x4184 (ite $x2673 29 28) ?x3305))))))))))))))))))
(assert
 (let (($x1283 (= (mod x_plus_year 400) 0)))
 (let (($x1462 (= (mod x_plus_year 4) 0)))
 (let (($x2673 (or (and $x1462 (and (distinct (mod x_plus_year 100) 0) true)) $x1283)))
 (let ((?x1166 (ite (= 2 x_plus_month) (ite $x2673 31 31) (ite (= 1 x_plus_month) (ite $x2673 0 0) 0))))
 (let ((?x1070 (ite (= 4 x_plus_month) (ite $x2673 91 90) (ite (= 3 x_plus_month) (ite $x2673 60 59) ?x1166))))
 (let ((?x1196 (ite (= 6 x_plus_month) (ite $x2673 152 151) (ite (= 5 x_plus_month) (ite $x2673 121 120) ?x1070))))
 (let ((?x798 (ite (= 8 x_plus_month) (ite $x2673 213 212) (ite (= 7 x_plus_month) (ite $x2673 182 181) ?x1196))))
 (let ((?x481 (ite (= 10 x_plus_month) (ite $x2673 274 273) (ite (= 9 x_plus_month) (ite $x2673 244 243) ?x798))))
 (let ((?x835 (ite (= 12 x_plus_month) (ite $x2673 335 334) (ite (= 11 x_plus_month) (ite $x2673 305 304) ?x481))))
 (let ((?x665 (+ (* 365 (- x_plus_year 1)) (div (- x_plus_year 1) 4))))
 (let ((?x1097 (+ (- ?x665 (div (- x_plus_year 1) 100)) (div (- x_plus_year 1) 400))))
 (= x_plus_epoch (- (+ (+ ?x1097 ?x835) (- x_plus_day 1)) 730179))))))))))))))
(assert
 (let ((?x625 (+ x_epoch 730179)))
 (let ((?x408 (mod ?x625 146097)))
 (let ((?x764 (div ?x408 36524)))
 (let ((?x2770 (ite (<= 4 ?x764) 3 ?x764)))
 (let ((?x747 (- ?x408 (* ?x2770 36524))))
 (let ((?x553 (mod ?x747 1461)))
 (let ((?x1202 (div ?x553 365)))
 (let ((?x833 (ite (<= 4 ?x1202) 3 ?x1202)))
 (let ((?x440 (+ (+ (* (div ?x625 146097) 400) (* ?x2770 100)) (* (div ?x747 1461) 4))))
 (let ((?x1965 (+ (+ ?x440 ?x833) 1)))
 (let (($x2719 (or (and (= (mod ?x1965 4) 0) (and (distinct (mod ?x1965 100) 0) true)) (= (mod ?x1965 400) 0))))
 (let ((?x1603 (- ?x553 (* ?x833 365))))
 (let ((?x1200 (ite $x2719 31 31)))
 (let (($x4211 (>= ?x1603 ?x1200)))
 (let ((?x941 (ite $x4211 (+ (- ?x1603 ?x1200) 1) (+ (- ?x1603 (ite $x2719 0 0)) 1))))
 (let ((?x1443 (ite $x2719 60 59)))
 (let (($x629 (>= ?x1603 ?x1443)))
 (let ((?x3433 (ite $x2719 91 90)))
 (let (($x4104 (>= ?x1603 ?x3433)))
 (let ((?x937 (ite $x4104 (+ (- ?x1603 ?x3433) 1) (ite $x629 (+ (- ?x1603 ?x1443) 1) ?x941))))
 (let ((?x831 (ite $x2719 121 120)))
 (let (($x4081 (>= ?x1603 ?x831)))
 (let ((?x836 (ite $x2719 152 151)))
 (let (($x644 (>= ?x1603 ?x836)))
 (let ((?x536 (ite $x644 (+ (- ?x1603 ?x836) 1) (ite $x4081 (+ (- ?x1603 ?x831) 1) ?x937))))
 (let ((?x935 (ite $x2719 182 181)))
 (let (($x2656 (>= ?x1603 ?x935)))
 (let ((?x432 (ite $x2719 213 212)))
 (let (($x3483 (>= ?x1603 ?x432)))
 (let ((?x983 (ite $x3483 (+ (- ?x1603 ?x432) 1) (ite $x2656 (+ (- ?x1603 ?x935) 1) ?x536))))
 (let ((?x1044 (ite $x2719 244 243)))
 (let (($x3533 (>= ?x1603 ?x1044)))
 (let ((?x3324 (ite $x2719 274 273)))
 (let (($x1238 (>= ?x1603 ?x3324)))
 (let ((?x4276 (ite $x1238 (+ (- ?x1603 ?x3324) 1) (ite $x3533 (+ (- ?x1603 ?x1044) 1) ?x983))))
 (let ((?x4107 (ite $x2719 305 304)))
 (let (($x2118 (>= ?x1603 ?x4107)))
 (let ((?x4210 (ite $x2719 335 334)))
 (let (($x1235 (>= ?x1603 ?x4210)))
 (let ((?x1536 (ite $x1235 (+ (- ?x1603 ?x4210) 1) (ite $x2118 (+ (- ?x1603 ?x4107) 1) ?x4276))))
 (let ((?x3550 (+ (* 1 12) 0)))
 (let ((?x2061 (ite $x4081 5 (ite $x4104 4 (ite $x629 3 (ite $x4211 2 1))))))
 (let ((?x943 (ite $x3533 9 (ite $x3483 8 (ite $x2656 7 (ite $x644 6 ?x2061))))))
 (let ((?x3462 (ite $x1235 12 (ite $x2118 11 (ite $x1238 10 ?x943)))))
 (let ((?x2554 (+ ?x3462 ?x3550)))
 (let ((?x1935 (- ?x2554 1)))
 (let ((?x4000 (+ (mod ?x1935 12) 1)))
 (let ((?x1581 (ite (or (= ?x4000 4) (= ?x4000 6) (= ?x4000 9) (= ?x4000 11)) 30 31)))
 (let (($x3512 (and (= (mod (+ ?x1965 (+ 0 (div ?x1935 12))) 4) 0) (and (distinct (mod (+ ?x1965 (+ 0 (div ?x1935 12))) 100) 0) true))))
 (let (($x3288 (or $x3512 (= (mod (+ ?x1965 (+ 0 (div ?x1935 12))) 400) 0))))
 (let ((?x2224 (ite (= ?x4000 2) (ite $x3288 29 28) ?x1581)))
 (let ((?x2380 (ite (> 1 ?x1536) 1 (ite (> ?x1536 ?x2224) ?x2224 ?x1536))))
 (let ((?x2957 (ite (> 1 ?x2380) 1 (ite (> ?x2380 ?x2224) ?x2224 ?x2380))))
 (let ((?x2577 (ite (= 2 ?x4000) (ite $x3288 31 31) (ite (= 1 ?x4000) (ite $x3288 0 0) 0))))
 (let ((?x2110 (ite (= 4 ?x4000) (ite $x3288 91 90) (ite (= 3 ?x4000) (ite $x3288 60 59) ?x2577))))
 (let ((?x2055 (ite (= 6 ?x4000) (ite $x3288 152 151) (ite (= 5 ?x4000) (ite $x3288 121 120) ?x2110))))
 (let ((?x3475 (ite (= 8 ?x4000) (ite $x3288 213 212) (ite (= 7 ?x4000) (ite $x3288 182 181) ?x2055))))
 (let ((?x2864 (ite (= 10 ?x4000) (ite $x3288 274 273) (ite (= 9 ?x4000) (ite $x3288 244 243) ?x3475))))
 (let ((?x2619 (ite (= 12 ?x4000) (ite $x3288 335 334) (ite (= 11 ?x4000) (ite $x3288 305 304) ?x2864))))
 (let ((?x4044 (+ (* 365 (- (+ ?x1965 (+ 0 (div ?x1935 12))) 1)) (div (- (+ ?x1965 (+ 0 (div ?x1935 12))) 1) 4))))
 (let ((?x3985 (+ (- ?x4044 (div (- (+ ?x1965 (+ 0 (div ?x1935 12))) 1) 100)) (div (- (+ ?x1965 (+ 0 (div ?x1935 12))) 1) 400))))
 (let ((?x1762 (+ (+ (- (+ (+ ?x3985 ?x2619) (- ?x2957 1)) 730179) 0) 730179)))
 (let ((?x2761 (mod ?x1762 146097)))
 (let ((?x3999 (div ?x2761 36524)))
 (let ((?x4092 (ite (<= 4 ?x3999) 3 ?x3999)))
 (let ((?x4094 (- ?x2761 (* ?x4092 36524))))
 (let ((?x1563 (mod ?x4094 1461)))
 (let ((?x1748 (div ?x1563 365)))
 (let ((?x2533 (ite (<= 4 ?x1748) 3 ?x1748)))
 (let ((?x1278 (+ (+ (* (div ?x1762 146097) 400) (* ?x4092 100)) (* (div ?x4094 1461) 4))))
 (let ((?x1331 (+ (+ ?x1278 ?x2533) 1)))
 (let ((?x3815 (+ 0 (div ?x1935 12))))
 (let ((?x999 (+ ?x1965 ?x3815)))
 (let (($x4045 (= 0 0)))
 (let ((?x3522 (ite $x4045 ?x999 ?x1331)))
 (= x_plus_year ?x3522)))))))))))))))))))))))))))))))))))))))))))))))))))))))))))))))))))))))))))))
(assert
 (let ((?x625 (+ x_epoch 730179)))
 (let ((?x408 (mod ?x625 146097)))
 (let ((?x764 (div ?x408 36524)))
 (let ((?x2770 (ite (<= 4 ?x764) 3 ?x764)))
 (let ((?x747 (- ?x408 (* ?x2770 36524))))
 (let ((?x553 (mod ?x747 1461)))
 (let ((?x1202 (div ?x553 365)))
 (let ((?x833 (ite (<= 4 ?x1202) 3 ?x1202)))
 (let ((?x440 (+ (+ (* (div ?x625 146097) 400) (* ?x2770 100)) (* (div ?x747 1461) 4))))
 (let ((?x1965 (+ (+ ?x440 ?x833) 1)))
 (let (($x2719 (or (and (= (mod ?x1965 4) 0) (and (distinct (mod ?x1965 100) 0) true)) (= (mod ?x1965 400) 0))))
 (let ((?x1603 (- ?x553 (* ?x833 365))))
 (let ((?x1200 (ite $x2719 31 31)))
 (let (($x4211 (>= ?x1603 ?x1200)))
 (let ((?x941 (ite $x4211 (+ (- ?x1603 ?x1200) 1) (+ (- ?x1603 (ite $x2719 0 0)) 1))))
 (let ((?x1443 (ite $x2719 60 59)))
 (let (($x629 (>= ?x1603 ?x1443)))
 (let ((?x3433 (ite $x2719 91 90)))
 (let (($x4104 (>= ?x1603 ?x3433)))
 (let ((?x937 (ite $x4104 (+ (- ?x1603 ?x3433) 1) (ite $x629 (+ (- ?x1603 ?x1443) 1) ?x941))))
 (let ((?x831 (ite $x2719 121 120)))
 (let (($x4081 (>= ?x1603 ?x831)))
 (let ((?x836 (ite $x2719 152 151)))
 (let (($x644 (>= ?x1603 ?x836)))
 (let ((?x536 (ite $x644 (+ (- ?x1603 ?x836) 1) (ite $x4081 (+ (- ?x1603 ?x831) 1) ?x937))))
 (let ((?x935 (ite $x2719 182 181)))
 (let (($x2656 (>= ?x1603 ?x935)))
 (let ((?x432 (ite $x2719 213 212)))
 (let (($x3483 (>= ?x1603 ?x432)))
 (let ((?x983 (ite $x3483 (+ (- ?x1603 ?x432) 1) (ite $x2656 (+ (- ?x1603 ?x935) 1) ?x536))))
 (let ((?x1044 (ite $x2719 244 243)))
 (let (($x3533 (>= ?x1603 ?x1044)))
 (let ((?x3324 (ite $x2719 274 273)))
 (let (($x1238 (>= ?x1603 ?x3324)))
 (let ((?x4276 (ite $x1238 (+ (- ?x1603 ?x3324) 1) (ite $x3533 (+ (- ?x1603 ?x1044) 1) ?x983))))
 (let ((?x4107 (ite $x2719 305 304)))
 (let (($x2118 (>= ?x1603 ?x4107)))
 (let ((?x4210 (ite $x2719 335 334)))
 (let (($x1235 (>= ?x1603 ?x4210)))
 (let ((?x1536 (ite $x1235 (+ (- ?x1603 ?x4210) 1) (ite $x2118 (+ (- ?x1603 ?x4107) 1) ?x4276))))
 (let ((?x3550 (+ (* 1 12) 0)))
 (let ((?x2061 (ite $x4081 5 (ite $x4104 4 (ite $x629 3 (ite $x4211 2 1))))))
 (let ((?x943 (ite $x3533 9 (ite $x3483 8 (ite $x2656 7 (ite $x644 6 ?x2061))))))
 (let ((?x3462 (ite $x1235 12 (ite $x2118 11 (ite $x1238 10 ?x943)))))
 (let ((?x2554 (+ ?x3462 ?x3550)))
 (let ((?x1935 (- ?x2554 1)))
 (let ((?x4000 (+ (mod ?x1935 12) 1)))
 (let ((?x1581 (ite (or (= ?x4000 4) (= ?x4000 6) (= ?x4000 9) (= ?x4000 11)) 30 31)))
 (let (($x3512 (and (= (mod (+ ?x1965 (+ 0 (div ?x1935 12))) 4) 0) (and (distinct (mod (+ ?x1965 (+ 0 (div ?x1935 12))) 100) 0) true))))
 (let (($x3288 (or $x3512 (= (mod (+ ?x1965 (+ 0 (div ?x1935 12))) 400) 0))))
 (let ((?x2224 (ite (= ?x4000 2) (ite $x3288 29 28) ?x1581)))
 (let ((?x2380 (ite (> 1 ?x1536) 1 (ite (> ?x1536 ?x2224) ?x2224 ?x1536))))
 (let ((?x2957 (ite (> 1 ?x2380) 1 (ite (> ?x2380 ?x2224) ?x2224 ?x2380))))
 (let ((?x2577 (ite (= 2 ?x4000) (ite $x3288 31 31) (ite (= 1 ?x4000) (ite $x3288 0 0) 0))))
 (let ((?x2110 (ite (= 4 ?x4000) (ite $x3288 91 90) (ite (= 3 ?x4000) (ite $x3288 60 59) ?x2577))))
 (let ((?x2055 (ite (= 6 ?x4000) (ite $x3288 152 151) (ite (= 5 ?x4000) (ite $x3288 121 120) ?x2110))))
 (let ((?x3475 (ite (= 8 ?x4000) (ite $x3288 213 212) (ite (= 7 ?x4000) (ite $x3288 182 181) ?x2055))))
 (let ((?x2864 (ite (= 10 ?x4000) (ite $x3288 274 273) (ite (= 9 ?x4000) (ite $x3288 244 243) ?x3475))))
 (let ((?x2619 (ite (= 12 ?x4000) (ite $x3288 335 334) (ite (= 11 ?x4000) (ite $x3288 305 304) ?x2864))))
 (let ((?x4044 (+ (* 365 (- (+ ?x1965 (+ 0 (div ?x1935 12))) 1)) (div (- (+ ?x1965 (+ 0 (div ?x1935 12))) 1) 4))))
 (let ((?x3985 (+ (- ?x4044 (div (- (+ ?x1965 (+ 0 (div ?x1935 12))) 1) 100)) (div (- (+ ?x1965 (+ 0 (div ?x1935 12))) 1) 400))))
 (let ((?x1762 (+ (+ (- (+ (+ ?x3985 ?x2619) (- ?x2957 1)) 730179) 0) 730179)))
 (let ((?x2761 (mod ?x1762 146097)))
 (let ((?x3999 (div ?x2761 36524)))
 (let ((?x4092 (ite (<= 4 ?x3999) 3 ?x3999)))
 (let ((?x4094 (- ?x2761 (* ?x4092 36524))))
 (let ((?x1563 (mod ?x4094 1461)))
 (let ((?x1748 (div ?x1563 365)))
 (let ((?x2533 (ite (<= 4 ?x1748) 3 ?x1748)))
 (let ((?x1278 (+ (+ (* (div ?x1762 146097) 400) (* ?x4092 100)) (* (div ?x4094 1461) 4))))
 (let ((?x1331 (+ (+ ?x1278 ?x2533) 1)))
 (let (($x4140 (or (and (= (mod ?x1331 4) 0) (and (distinct (mod ?x1331 100) 0) true)) (= (mod ?x1331 400) 0))))
 (let ((?x1659 (ite $x4140 31 31)))
 (let ((?x2204 (- ?x1563 (* ?x2533 365))))
 (let (($x3885 (>= ?x2204 ?x1659)))
 (let ((?x1885 (ite $x4140 60 59)))
 (let (($x4264 (>= ?x2204 ?x1885)))
 (let ((?x1590 (ite $x4140 91 90)))
 (let (($x4266 (>= ?x2204 ?x1590)))
 (let ((?x4127 (ite $x4140 121 120)))
 (let (($x751 (>= ?x2204 ?x4127)))
 (let ((?x1324 (ite $x751 5 (ite $x4266 4 (ite $x4264 3 (ite $x3885 2 1))))))
 (let ((?x4128 (ite $x4140 152 151)))
 (let (($x890 (>= ?x2204 ?x4128)))
 (let ((?x2631 (ite $x4140 182 181)))
 (let (($x4068 (>= ?x2204 ?x2631)))
 (let ((?x4129 (ite $x4140 213 212)))
 (let (($x3068 (>= ?x2204 ?x4129)))
 (let ((?x4130 (ite $x4140 244 243)))
 (let (($x896 (>= ?x2204 ?x4130)))
 (let ((?x3919 (ite $x896 9 (ite $x3068 8 (ite $x4068 7 (ite $x890 6 ?x1324))))))
 (let ((?x2650 (ite $x4140 274 273)))
 (let (($x461 (>= ?x2204 ?x2650)))
 (let ((?x4141 (ite $x4140 305 304)))
 (let (($x3337 (>= ?x2204 ?x4141)))
 (let ((?x2947 (ite $x4140 335 334)))
 (let (($x3678 (>= ?x2204 ?x2947)))
 (let (($x4045 (= 0 0)))
 (let ((?x3754 (ite $x4045 ?x4000 (ite $x3678 12 (ite $x3337 11 (ite $x461 10 ?x3919))))))
 (= x_plus_month ?x3754)))))))))))))))))))))))))))))))))))))))))))))))))))))))))))))))))))))))))))))))))))))))))))))))))))))
(assert
 (let ((?x625 (+ x_epoch 730179)))
 (let ((?x408 (mod ?x625 146097)))
 (let ((?x764 (div ?x408 36524)))
 (let ((?x2770 (ite (<= 4 ?x764) 3 ?x764)))
 (let ((?x747 (- ?x408 (* ?x2770 36524))))
 (let ((?x553 (mod ?x747 1461)))
 (let ((?x1202 (div ?x553 365)))
 (let ((?x833 (ite (<= 4 ?x1202) 3 ?x1202)))
 (let ((?x440 (+ (+ (* (div ?x625 146097) 400) (* ?x2770 100)) (* (div ?x747 1461) 4))))
 (let ((?x1965 (+ (+ ?x440 ?x833) 1)))
 (let (($x2719 (or (and (= (mod ?x1965 4) 0) (and (distinct (mod ?x1965 100) 0) true)) (= (mod ?x1965 400) 0))))
 (let ((?x1603 (- ?x553 (* ?x833 365))))
 (let ((?x1200 (ite $x2719 31 31)))
 (let (($x4211 (>= ?x1603 ?x1200)))
 (let ((?x941 (ite $x4211 (+ (- ?x1603 ?x1200) 1) (+ (- ?x1603 (ite $x2719 0 0)) 1))))
 (let ((?x1443 (ite $x2719 60 59)))
 (let (($x629 (>= ?x1603 ?x1443)))
 (let ((?x3433 (ite $x2719 91 90)))
 (let (($x4104 (>= ?x1603 ?x3433)))
 (let ((?x937 (ite $x4104 (+ (- ?x1603 ?x3433) 1) (ite $x629 (+ (- ?x1603 ?x1443) 1) ?x941))))
 (let ((?x831 (ite $x2719 121 120)))
 (let (($x4081 (>= ?x1603 ?x831)))
 (let ((?x836 (ite $x2719 152 151)))
 (let (($x644 (>= ?x1603 ?x836)))
 (let ((?x536 (ite $x644 (+ (- ?x1603 ?x836) 1) (ite $x4081 (+ (- ?x1603 ?x831) 1) ?x937))))
 (let ((?x935 (ite $x2719 182 181)))
 (let (($x2656 (>= ?x1603 ?x935)))
 (let ((?x432 (ite $x2719 213 212)))
 (let (($x3483 (>= ?x1603 ?x432)))
 (let ((?x983 (ite $x3483 (+ (- ?x1603 ?x432) 1) (ite $x2656 (+ (- ?x1603 ?x935) 1) ?x536))))
 (let ((?x1044 (ite $x2719 244 243)))
 (let (($x3533 (>= ?x1603 ?x1044)))
 (let ((?x3324 (ite $x2719 274 273)))
 (let (($x1238 (>= ?x1603 ?x3324)))
 (let ((?x4276 (ite $x1238 (+ (- ?x1603 ?x3324) 1) (ite $x3533 (+ (- ?x1603 ?x1044) 1) ?x983))))
 (let ((?x4107 (ite $x2719 305 304)))
 (let (($x2118 (>= ?x1603 ?x4107)))
 (let ((?x4210 (ite $x2719 335 334)))
 (let (($x1235 (>= ?x1603 ?x4210)))
 (let ((?x1536 (ite $x1235 (+ (- ?x1603 ?x4210) 1) (ite $x2118 (+ (- ?x1603 ?x4107) 1) ?x4276))))
 (let ((?x3550 (+ (* 1 12) 0)))
 (let ((?x2061 (ite $x4081 5 (ite $x4104 4 (ite $x629 3 (ite $x4211 2 1))))))
 (let ((?x943 (ite $x3533 9 (ite $x3483 8 (ite $x2656 7 (ite $x644 6 ?x2061))))))
 (let ((?x3462 (ite $x1235 12 (ite $x2118 11 (ite $x1238 10 ?x943)))))
 (let ((?x2554 (+ ?x3462 ?x3550)))
 (let ((?x1935 (- ?x2554 1)))
 (let ((?x4000 (+ (mod ?x1935 12) 1)))
 (let ((?x1581 (ite (or (= ?x4000 4) (= ?x4000 6) (= ?x4000 9) (= ?x4000 11)) 30 31)))
 (let (($x3512 (and (= (mod (+ ?x1965 (+ 0 (div ?x1935 12))) 4) 0) (and (distinct (mod (+ ?x1965 (+ 0 (div ?x1935 12))) 100) 0) true))))
 (let (($x3288 (or $x3512 (= (mod (+ ?x1965 (+ 0 (div ?x1935 12))) 400) 0))))
 (let ((?x2224 (ite (= ?x4000 2) (ite $x3288 29 28) ?x1581)))
 (let ((?x2380 (ite (> 1 ?x1536) 1 (ite (> ?x1536 ?x2224) ?x2224 ?x1536))))
 (let ((?x2957 (ite (> 1 ?x2380) 1 (ite (> ?x2380 ?x2224) ?x2224 ?x2380))))
 (let ((?x2577 (ite (= 2 ?x4000) (ite $x3288 31 31) (ite (= 1 ?x4000) (ite $x3288 0 0) 0))))
 (let ((?x2110 (ite (= 4 ?x4000) (ite $x3288 91 90) (ite (= 3 ?x4000) (ite $x3288 60 59) ?x2577))))
 (let ((?x2055 (ite (= 6 ?x4000) (ite $x3288 152 151) (ite (= 5 ?x4000) (ite $x3288 121 120) ?x2110))))
 (let ((?x3475 (ite (= 8 ?x4000) (ite $x3288 213 212) (ite (= 7 ?x4000) (ite $x3288 182 181) ?x2055))))
 (let ((?x2864 (ite (= 10 ?x4000) (ite $x3288 274 273) (ite (= 9 ?x4000) (ite $x3288 244 243) ?x3475))))
 (let ((?x2619 (ite (= 12 ?x4000) (ite $x3288 335 334) (ite (= 11 ?x4000) (ite $x3288 305 304) ?x2864))))
 (let ((?x4044 (+ (* 365 (- (+ ?x1965 (+ 0 (div ?x1935 12))) 1)) (div (- (+ ?x1965 (+ 0 (div ?x1935 12))) 1) 4))))
 (let ((?x3985 (+ (- ?x4044 (div (- (+ ?x1965 (+ 0 (div ?x1935 12))) 1) 100)) (div (- (+ ?x1965 (+ 0 (div ?x1935 12))) 1) 400))))
 (let ((?x1762 (+ (+ (- (+ (+ ?x3985 ?x2619) (- ?x2957 1)) 730179) 0) 730179)))
 (let ((?x2761 (mod ?x1762 146097)))
 (let ((?x3999 (div ?x2761 36524)))
 (let ((?x4092 (ite (<= 4 ?x3999) 3 ?x3999)))
 (let ((?x4094 (- ?x2761 (* ?x4092 36524))))
 (let ((?x1563 (mod ?x4094 1461)))
 (let ((?x1748 (div ?x1563 365)))
 (let ((?x2533 (ite (<= 4 ?x1748) 3 ?x1748)))
 (let ((?x1278 (+ (+ (* (div ?x1762 146097) 400) (* ?x4092 100)) (* (div ?x4094 1461) 4))))
 (let ((?x1331 (+ (+ ?x1278 ?x2533) 1)))
 (let (($x4140 (or (and (= (mod ?x1331 4) 0) (and (distinct (mod ?x1331 100) 0) true)) (= (mod ?x1331 400) 0))))
 (let ((?x2204 (- ?x1563 (* ?x2533 365))))
 (let ((?x1659 (ite $x4140 31 31)))
 (let (($x3885 (>= ?x2204 ?x1659)))
 (let ((?x2299 (ite $x3885 (+ (- ?x2204 ?x1659) 1) (+ (- ?x2204 (ite $x4140 0 0)) 1))))
 (let ((?x1885 (ite $x4140 60 59)))
 (let (($x4264 (>= ?x2204 ?x1885)))
 (let ((?x1590 (ite $x4140 91 90)))
 (let (($x4266 (>= ?x2204 ?x1590)))
 (let ((?x2774 (ite $x4266 (+ (- ?x2204 ?x1590) 1) (ite $x4264 (+ (- ?x2204 ?x1885) 1) ?x2299))))
 (let ((?x4127 (ite $x4140 121 120)))
 (let (($x751 (>= ?x2204 ?x4127)))
 (let ((?x4128 (ite $x4140 152 151)))
 (let (($x890 (>= ?x2204 ?x4128)))
 (let ((?x1511 (ite $x890 (+ (- ?x2204 ?x4128) 1) (ite $x751 (+ (- ?x2204 ?x4127) 1) ?x2774))))
 (let ((?x2631 (ite $x4140 182 181)))
 (let (($x4068 (>= ?x2204 ?x2631)))
 (let ((?x4129 (ite $x4140 213 212)))
 (let (($x3068 (>= ?x2204 ?x4129)))
 (let ((?x2273 (ite $x3068 (+ (- ?x2204 ?x4129) 1) (ite $x4068 (+ (- ?x2204 ?x2631) 1) ?x1511))))
 (let ((?x4130 (ite $x4140 244 243)))
 (let (($x896 (>= ?x2204 ?x4130)))
 (let ((?x2650 (ite $x4140 274 273)))
 (let (($x461 (>= ?x2204 ?x2650)))
 (let ((?x4033 (ite $x461 (+ (- ?x2204 ?x2650) 1) (ite $x896 (+ (- ?x2204 ?x4130) 1) ?x2273))))
 (let ((?x4141 (ite $x4140 305 304)))
 (let (($x3337 (>= ?x2204 ?x4141)))
 (let ((?x2947 (ite $x4140 335 334)))
 (let (($x3678 (>= ?x2204 ?x2947)))
 (let ((?x2318 (ite $x3678 (+ (- ?x2204 ?x2947) 1) (ite $x3337 (+ (- ?x2204 ?x4141) 1) ?x4033))))
 (let (($x4045 (= 0 0)))
 (let ((?x4034 (ite $x4045 ?x2957 ?x2318)))
 (= x_plus_day ?x4034)))))))))))))))))))))))))))))))))))))))))))))))))))))))))))))))))))))))))))))))))))))))))))))))))))))))))
(assert
 (= y_epoch x_plus_epoch))
(assert
 (not (= y_epoch 7669)))
(check-sat)
